100
3511
15 165
69 35
84 178
90 152
50 98
67 176
93 164
14 88
38 66
48 25
94 18
4 30
3 124
85 109
37 166
35 143
97 198
13 92
27 106
11 108
47 66
12 72
68 151
95 96
38 49
37 78
88 36
58 45
19 96
63 183
40 140
38 181
3 65
81 56
91 25
8 13
53 99
23 142
54 42
39 40
6 115
85 71
17 107
86 185
84 150
77 14
55 158
31 189
1 150
84 172
8 108
5 135
35 109
89 102
79 42
30 39
70 177
90 28
11 175
65 157
91 137
65 70
71 170
75 121
84 171
36 95
6 123
15 69
77 197
33 12
41 33
89 194
25 172
94 106
74 141
56 93
69 80
22 72
99 93
48 37
68 146
80 12
7 83
8 32
26 186
20 92
7 156
84 50
51 153
31 177
55 150
70 104
18 140
54 190
32 175
89 157
94 108
14 146
51 112
51 129
